sat
(:arith-bound-propagations-cheap  1868
 :arith-bound-propagations-lp     1616
 :arith-branch                    1
 :arith-conflicts                 75
 :arith-cube-calls                1
 :arith-diseq                     48
 :arith-eq                        7300
 :arith-fixed-eqs                 1276
 :arith-gcd-calls                 19
 :arith-grobner-calls             44
 :arith-grobner-conflicts         11
 :arith-horner-calls              11
 :arith-horner-conflicts          1
 :arith-horner-cross-nested-forms 2698
 :arith-lower                     4736
 :arith-make-feasible             9735
 :arith-max-columns               944
 :arith-max-rows                  544
 :arith-nla-add-bounds            37
 :arith-nla-lemmas                57
 :arith-nla-propagate-bounds      106
 :arith-nla-propagate-eq          5479
 :arith-nra-calls                 24
 :arith-offset-eqs                381
 :arith-patches                   19
 :arith-patches-success           18
 :arith-propagations              1868
 :arith-upper                     11482
 :euf-ackerman                    8
 :euf-conflicts                   11
 :euf-final-check                 169
 :euf-merge                       15540
 :euf-propagations-eqs            984
 :euf-propagations-literal        864
 :euf-propagations-theory-diseqs  2246
 :euf-propagations-theory-eqs     9427
 :max-memory                      27.13
 :memory                          17.97
 :nlsat-conflicts                 1102
 :nlsat-decisions                 4
 :nlsat-propagations              162637
 :nlsat-restarts                  1
 :nlsat-stages                    49014
 :num-allocs                      388961453
 :rlimit-count                    1643499
 :sat-backjumps                   155
 :sat-conflicts                   155
 :sat-decisions                   8606
 :sat-del-clause                  49
 :sat-elim-bool-vars-res          7
 :sat-elim-clauses                1
 :sat-elim-literals               27
 :sat-minimized-lits              192
 :sat-mk-clause-2ary              1320
 :sat-mk-clause-3ary              27
 :sat-mk-clause-nary              449
 :sat-mk-var                      704
 :sat-probing-assigned            30
 :sat-propagations-2ary           30124
 :sat-propagations-nary           4313
 :sat-restarts                    17
 :sat-scc-elim-binary             9
 :sat-scc-elim-vars               3
 :sat-subs-resolution             15
 :sat-subs-resolution-dyn         7
 :sat-subsumed                    288
 :sat-units                       88
 :simplifier-steps                3952
 :solve-eqs-elim-vars             174
 :solve-eqs-steps                 1240
 :time                            0.54
 :total-time                      0.55)
